(set-logic HORN)
(declare-fun state (Int Int (Array Int Int) Int Int Int Int Int Int Int Int Int Int Int (Array Int Int) (Array Int Int) Int Int Int Int Int Int Int Int Int Int Int Int Int Int Int Int Int Int Int (Array Int Int) (Array Int Int) Int Int Int Int Int Int (Array Int Int) Int Int Int Int Int Int Int Int Int Int Int Int Int Int Int Int Int Int Int Int Int Int Int Int Int Int Int Int Int Int Int Int Int Int Int Int Bool Bool Bool Bool Bool Int Int) Bool)
(assert (forall ((|D3| Int) (|B| Int) (|C| (Array Int Int)) (|D| Int) (|E| Int) (|E3| Int) (|G| Int) (|H| Int) (|F3| Int) (|J| Int) (|K| Int) (|L| Int) (|M| Int) (|N| Int) (|G3| (Array Int Int)) (|P| (Array Int Int)) (|Q| Int) (|H3| Int) (|S| Int) (|T| Int) (|U| Int) (|V| Int) (|W| Int) (|X| Int) (|Y| Int) (|I3| Int) (|A1| Int) (|B1| Int) (|J3| Int) (|D1| Int) (|E1| Int) (|F1| Int) (|G1| Int) (|K3| Int) (|I1| Int) (|L3| (Array Int Int)) (|K1| (Array Int Int)) (|L1| Int) (|M1| Int) (|N1| Int) (|O1| Int) (|M3| Int) (|Q1| Int) (|R1| (Array Int Int)) (|S1| Int) (|T1| Int) (|U1| Int) (|V1| Int) (|W1| Int) (|X1| Int) (|Y1| Int) (|Z1| Int) (|A2| Int) (|B2| Int) (|C2| Int) (|D2| Int) (|E2| Int) (|F2| Int) (|G2| Int) (|H2| Int) (|I2| Int) (|J2| Int) (|K2| Int) (|L2| Int) (|M2| Int) (|N2| Int) (|O2| Int) (|P2| Int) (|Q2| Int) (|R2| Int) (|S2| Int) (|T2| Int) (|U2| Int) (|V2| Int) (|W2| Int) (|X2| Int) (|Y2| Int) (|Z2| Int) (|A3| Int) (|B3| Int) (|C3| Bool) (|.loc.5| Bool) (|.loc.6| Bool) (|.loc.7| Bool) (|.loc.8| Bool) (|R3_0| Int) (|O3_0| Int) (|.x.371| Int) (|.x.372| (Array Int Int)) (|.x.373| Int) (|.x.374| Int) (|.x.376| Int) (|.x.377| Int) (|.x.379| Int) (|.x.380| Int) (|.x.381| Int) (|.x.382| Int) (|.x.383| Int) (|.x.385| (Array Int Int)) (|.x.386| Int) (|.x.388| Int) (|.x.389| Int) (|.x.390| Int) (|.x.391| Int) (|.x.392| Int) (|.x.393| Int) (|.x.394| Int) (|.x.396| Int) (|.x.397| Int) (|.x.399| Int) (|.x.400| Int) (|.x.401| Int) (|.x.402| Int) (|.x.404| Int) (|.x.406| (Array Int Int)) (|.x.407| Int) (|.x.408| Int) (|.x.409| Int) (|.x.410| Int) (|.x.413| (Array Int Int)) (|.x.412| Int) (|.loc.9| Bool) (|.loc.10| Bool) (|.x.428| Int) (|.x.430| Int) (|.x.421| Int) (|.x.435| Int) (|.x.370| Int) (|.x.405| (Array Int Int)) (|.x.384| (Array Int Int)) (|.x.375| Int) (|.x.378| Int) (|.x.411| Int) (|.x.403| Int) (|.x.398| Int) (|.x.387| Int) (|.x.395| Int) (|.x.418| Int) (|.x.414| Int) (|.x.446| Int) (|.x.444| Int) (|.x.443| Int) (|.x.432| Int) (|.x.427| Int) (|.x.434| Int) (|.x.445| Int) (|.x.431| Int) (|.x.424| Int) (|.x.423| Int) (|.x.422| Int) (|.x.419| Int) (|.x.416| Int) (|.x.415| Int) (|.x.438| Int) (|.x.447| Int) (|.x.449| Int) (|.x.448| Int) (|.x.440| Int) (|.x.437| Int) (|.x.436| Int) (|.x.426| Int) (|.x.425| Int) (|.x.433| Int) (|C3_4| Bool) (|.x.439| Int) (|.x.429| Int) (|.loc.12| Bool) (|.x.420| Int) (|.x.442| Int) (|.x.441| Int) (|.x.417| Int) (|.loc.11| Bool) (|.xtv.1| Int) (|.xtv.2| Int)) (=> (and (and (and (and (not .loc.6) (not .loc.5)) (not .loc.7)) (not .loc.8)) (and (and (and (and (and (and (and (and (and (and (= G3 P) (not C3)) (= E3 G)) (= F3 J)) (= M3 Q1)) (= J3 D1)) (= K3 I1)) (= I3 A1)) (= H3 S)) (= L3 K1)) (= D3 B))) (state |D3| |B| |C| |D| |E| |E3| |G| |H| |F3| |J| |K| |L| |M| |N| |G3| |P| |Q| |H3| |S| |T| |U| |V| |W| |X| |Y| |I3| |A1| |B1| |J3| |D1| |E1| |F1| |G1| |K3| |I1| |L3| |K1| |L1| |M1| |N1| |O1| |M3| |Q1| |R1| |S1| |T1| |U1| |V1| |W1| |X1| |Y1| |Z1| |A2| |B2| |C2| |D2| |E2| |F2| |G2| |H2| |I2| |J2| |K2| |L2| |M2| |N2| |O2| |P2| |Q2| |R2| |S2| |T2| |U2| |V2| |W2| |X2| |Y2| |Z2| |A3| |B3| |C3| |.loc.5| |.loc.6| |.loc.7| |.loc.8| |R3_0| |O3_0|))))
(assert (forall ((|D3| Int) (|B| Int) (|C| (Array Int Int)) (|D| Int) (|E| Int) (|E3| Int) (|G| Int) (|H| Int) (|F3| Int) (|J| Int) (|K| Int) (|L| Int) (|M| Int) (|N| Int) (|G3| (Array Int Int)) (|P| (Array Int Int)) (|Q| Int) (|H3| Int) (|S| Int) (|T| Int) (|U| Int) (|V| Int) (|W| Int) (|X| Int) (|Y| Int) (|I3| Int) (|A1| Int) (|B1| Int) (|J3| Int) (|D1| Int) (|E1| Int) (|F1| Int) (|G1| Int) (|K3| Int) (|I1| Int) (|L3| (Array Int Int)) (|K1| (Array Int Int)) (|L1| Int) (|M1| Int) (|N1| Int) (|O1| Int) (|M3| Int) (|Q1| Int) (|R1| (Array Int Int)) (|S1| Int) (|T1| Int) (|U1| Int) (|V1| Int) (|W1| Int) (|X1| Int) (|Y1| Int) (|Z1| Int) (|A2| Int) (|B2| Int) (|C2| Int) (|D2| Int) (|E2| Int) (|F2| Int) (|G2| Int) (|H2| Int) (|I2| Int) (|J2| Int) (|K2| Int) (|L2| Int) (|M2| Int) (|N2| Int) (|O2| Int) (|P2| Int) (|Q2| Int) (|R2| Int) (|S2| Int) (|T2| Int) (|U2| Int) (|V2| Int) (|W2| Int) (|X2| Int) (|Y2| Int) (|Z2| Int) (|A3| Int) (|B3| Int) (|C3| Bool) (|.loc.5| Bool) (|.loc.6| Bool) (|.loc.7| Bool) (|.loc.8| Bool) (|R3_0| Int) (|O3_0| Int) (|.x.371| Int) (|.x.372| (Array Int Int)) (|.x.373| Int) (|.x.374| Int) (|.x.376| Int) (|.x.377| Int) (|.x.379| Int) (|.x.380| Int) (|.x.381| Int) (|.x.382| Int) (|.x.383| Int) (|.x.385| (Array Int Int)) (|.x.386| Int) (|.x.388| Int) (|.x.389| Int) (|.x.390| Int) (|.x.391| Int) (|.x.392| Int) (|.x.393| Int) (|.x.394| Int) (|.x.396| Int) (|.x.397| Int) (|.x.399| Int) (|.x.400| Int) (|.x.401| Int) (|.x.402| Int) (|.x.404| Int) (|.x.406| (Array Int Int)) (|.x.407| Int) (|.x.408| Int) (|.x.409| Int) (|.x.410| Int) (|.x.413| (Array Int Int)) (|.x.412| Int) (|.loc.9| Bool) (|.loc.10| Bool) (|.x.428| Int) (|.x.430| Int) (|.x.421| Int) (|.x.435| Int) (|.x.370| Int) (|.x.405| (Array Int Int)) (|.x.384| (Array Int Int)) (|.x.375| Int) (|.x.378| Int) (|.x.411| Int) (|.x.403| Int) (|.x.398| Int) (|.x.387| Int) (|.x.395| Int) (|.x.418| Int) (|.x.414| Int) (|.x.446| Int) (|.x.444| Int) (|.x.443| Int) (|.x.432| Int) (|.x.427| Int) (|.x.434| Int) (|.x.445| Int) (|.x.431| Int) (|.x.424| Int) (|.x.423| Int) (|.x.422| Int) (|.x.419| Int) (|.x.416| Int) (|.x.415| Int) (|.x.438| Int) (|.x.447| Int) (|.x.449| Int) (|.x.448| Int) (|.x.440| Int) (|.x.437| Int) (|.x.436| Int) (|.x.426| Int) (|.x.425| Int) (|.x.433| Int) (|C3_4| Bool) (|.x.439| Int) (|.x.429| Int) (|.loc.12| Bool) (|.x.420| Int) (|.x.442| Int) (|.x.441| Int) (|.x.417| Int) (|.loc.11| Bool) (|.xtv.1| Int) (|.xtv.2| Int)) (=> (and (state |D3| |B| |C| |D| |E| |E3| |G| |H| |F3| |J| |K| |L| |M| |N| |G3| |P| |Q| |H3| |S| |T| |U| |V| |W| |X| |Y| |I3| |A1| |B1| |J3| |D1| |E1| |F1| |G1| |K3| |I1| |L3| |K1| |L1| |M1| |N1| |O1| |M3| |Q1| |R1| |S1| |T1| |U1| |V1| |W1| |X1| |Y1| |Z1| |A2| |B2| |C2| |D2| |E2| |F2| |G2| |H2| |I2| |J2| |K2| |L2| |M2| |N2| |O2| |P2| |Q2| |R2| |S2| |T2| |U2| |V2| |W2| |X2| |Y2| |Z2| |A3| |B3| |C3| |.loc.5| |.loc.6| |.loc.7| |.loc.8| |R3_0| |O3_0|) (let ((.def_97 (not .loc.6))) (let ((.def_98 (not .loc.5))) (let ((.def_100 (not .loc.7))) (let ((.def_102 (not .loc.8))) (let ((.def_228 (not .loc.9))) (let ((.def_233 (= .x.428 .x.430))) (let ((.def_236 (= .x.421 .x.435))) (let ((.def_238 (= .x.430 .x.435))) (let ((.def_241 (= .x.428 8))) (let ((.def_242 (and (and (and .def_233 .def_236) .def_238) .def_241))) (let ((.def_263 (= .x.411 0))) (let ((.def_272 (= .x.387 0))) (let ((.def_277 (= .x.370 0))) (let ((.def_280 (select R1 .x.370))) (let ((.def_289 (select C .x.370))) (let ((.def_302 (or C3 (and (= (store (store L3 0 0) .x.370 1) .x.405) (and (= (store G3 .x.370 8) .x.384) (and (and (and (and (and (and (and (and (and (and (and (and (and (= .x.375 0) (not (<= F1 .x.370))) (= .x.378 0)) .def_263) (= .x.403 0)) (= .x.398 0)) .def_272) (= .x.395 0)) (not .def_277)) (= (select .def_280 .x.403) 0)) (= (select .def_280 (+ .x.403 4)) 0)) (= (select .def_289 .x.403) 0)) (= (select .def_289 (+ .x.403 4)) 0)) (= (ite .def_277 0 (select L3 .x.370)) 0))))))) (let ((.def_313 (and .def_233 (and .def_238 (and .def_241 (and (= O3_0 .x.418) (and .def_236 (= R3_0 .x.414)))))))) (let ((.def_317 (= Y2 .x.446))) (let ((.def_320 (= W2 .x.444))) (let ((.def_323 (= V2 .x.443))) (let ((.def_326 (= K2 .x.432))) (let ((.def_329 (= F2 .x.427))) (let ((.def_331 (= M3 .x.411))) (let ((.def_333 (= L3 .x.405))) (let ((.def_335 (= K3 .x.403))) (let ((.def_337 (= J3 .x.398))) (let ((.def_339 (= I3 .x.395))) (let ((.def_341 (= H3 .x.387))) (let ((.def_343 (= G3 .x.384))) (let ((.def_345 (= F3 .x.378))) (let ((.def_347 (= E3 .x.375))) (let ((.def_349 (= D3 .x.370))) (let ((.def_354 (or C3 (and (= P2 O3_0) (= S2 R3_0))))) (let ((.def_357 (<= .x.421 0))) (let ((.def_360 (= M2 .x.434))) (let ((.def_362 (= X2 .x.445))) (let ((.def_363 (and .def_360 .def_362))) (let ((.def_365 (= J2 .x.431))) (let ((.def_368 (= C2 .x.424))) (let ((.def_371 (= B2 .x.423))) (let ((.def_374 (= A2 .x.422))) (let ((.def_377 (= X1 .x.419))) (let ((.def_380 (= U1 .x.416))) (let ((.def_383 (= T1 .x.415))) (let ((.def_384 (and (and (and (and (and (and (and .def_363 .def_365) .def_368) .def_371) .def_374) .def_377) .def_380) .def_383))) (let ((.def_392 (and (= .x.432 .x.438) (= .x.443 .x.447)))) (let ((.def_394 (= .x.443 0))) (let ((.def_396 (= .x.432 0))) (let ((.def_399 (= .x.414 0))) (let ((.def_401 (= .x.418 0))) (let ((.def_407 (= .x.445 .x.422))) (let ((.def_413 (= .x.424 .x.423))) (let ((.def_415 (= .x.431 .x.416))) (let ((.def_419 (= .x.419 .x.415))) (let ((.def_420 (and (and (and (and (and (and (and (and (and (or (not .def_394) (not .def_396)) (or (not .def_399) (not .def_401))) (= .x.370 .x.419)) .def_407) (= .x.443 .x.416)) (= .x.403 .x.423)) .def_413) .def_415) (= .x.432 .x.422)) .def_419))) (let ((.def_434 (= .x.387 .x.431))) (let ((.def_435 (= .x.411 .x.445))) (let ((.def_436 (and .def_434 .def_435))) (let ((.def_437 (or C3 .def_436))) (let ((.def_442 (= B3 .x.449))) (let ((.def_445 (= A3 .x.448))) (let ((.def_448 (= S2 .x.440))) (let ((.def_451 (= P2 .x.437))) (let ((.def_454 (= O2 .x.436))) (let ((.def_456 (= N2 .x.435))) (let ((.def_458 (= I2 .x.430))) (let ((.def_460 (= G2 .x.428))) (let ((.def_463 (= E2 .x.426))) (let ((.def_466 (= D2 .x.425))) (let ((.def_468 (= Z1 .x.421))) (let ((.def_470 (= W1 .x.418))) (let ((.def_472 (= S1 .x.414))) (let ((.def_477 (or C3 (and (= S2 .x.447) (= P2 .x.438))))) (let ((.def_481 (= L2 .x.433))) (let ((.def_483 (and .def_481 C3_4))) (let ((.def_523 (= C3 C3_4))) (let ((.def_525 (= Z2 .x.447))) (let ((.def_528 (= R2 .x.439))) (let ((.def_530 (= Q2 .x.438))) (let ((.def_533 (= H2 .x.429))) (let ((.def_575 (= K3 .x.423))) (let ((.def_578 (and .def_407 (= D3 .x.419)))) (let ((.def_585 (or C3 (and .def_419 (and (= W1 .x.422) (and .def_415 (and .def_413 (and .def_575 (and (= S1 .x.416) .def_578))))))))) (let ((.def_588 (and .loc.5 .def_483))) (let ((.def_633 (or C3 (and .def_419 (and (= K2 .x.422) (and .def_415 (and .def_413 (and .def_575 (and .def_578 (= V2 .x.416)))))))))) (let ((.def_682 (and .def_383 (and .def_380 (and .def_377 (and .def_374 (and .def_371 (and .def_368 (and .def_365 (and .def_362 .def_481)))))))))) (let ((.def_692 (and .def_329 (and .def_326 (and .def_323 (and .def_320 (and .def_317 (and .loc.9 (and .def_97 (and .def_98 (and .loc.8 (and .loc.7 .def_682)))))))))))) (let ((.def_719 (not .loc.10))) (let ((.def_721 (= M2 0))) (let ((.def_722 (not .def_721))) (let ((.def_724 (or C3_4 (and .def_436 .def_722)))) (let ((.def_732 (or C3 (and (<= M2 2147483647) (<= (- 2147483648) M2))))) (let ((.def_765 (or C3_4 .def_721))) (let ((.def_779 (and .def_383 (and .def_380 (and .def_377 (and .def_374 (and .def_371 (and .def_368 (and .def_365 (and .def_363 .def_481)))))))))) (let ((.def_813 (or .def_392 C3_4))) (let ((.def_831 (and .def_329 (and .def_326 (and .def_323 (and .def_320 (and .def_317 (and .def_228 (and .loc.10 (and .def_102 (and .def_97 (and .loc.7 (and .loc.5 .def_682))))))))))))) (let ((.def_859 (not .loc.12))) (let ((.def_896 (= Y1 .x.420))) (let ((.def_898 (= U2 .x.442))) (let ((.def_900 (= T2 .x.441))) (let ((.def_901 (and .def_898 .def_900))) (let ((.def_904 (= V1 .x.417))) (let ((.def_925 (and .def_329 (and .def_326 (and .def_323 (and .def_320 (and .def_317 (and .loc.12 (and .loc.9 (and .def_100 (and .def_97 (and .def_98 (and .loc.8 .def_779))))))))))))) (let ((.def_953 (not .loc.11))) (let ((.def_963 (or C3 (and (= .x.441 .x.417) (and (= .x.420 .x.442) (and (= K2 .x.442) (= V2 .x.441))))))) (let ((.def_1006 (and .def_900 (and .def_362 .def_898)))) (let ((.def_1016 (and .def_383 (and .def_380 (and .def_904 (and .def_377 (and .def_896 (and .def_374 (and .def_371 (and .def_368 (and .def_365 (and .def_481 .def_1006)))))))))))) (let ((.def_1028 (and .def_329 (and .def_326 (and .def_323 (and .def_320 (and .def_317 (and .loc.12 (and .loc.10 (and .loc.9 (and .def_100 (and .def_98 (and .loc.8 (and .loc.6 .def_1016)))))))))))))) (let ((.def_1091 (and C3 C3_4))) (let ((.def_1096 (and .def_904 (and .def_896 (and .def_481 (and .def_900 (and .def_898 .def_1091))))))) (let ((.def_1097 (and .loc.5 .def_1096))) (let ((.def_1149 (and .def_383 (and .def_380 (and .def_904 (and .def_377 (and .def_896 (and .def_374 (and .def_371 (and .def_368 (and .def_365 (and .def_481 (and .def_360 .def_1006))))))))))))) (let ((.def_1150 (and .loc.5 .def_1149))) (let ((.def_1183 (and .def_953 (and .def_859 (and .def_533 (and .def_530 (and .def_528 (and .def_525 (and .def_523 (and .def_472 (and .def_470 (and .def_468 (and .def_466 (and .def_463 (and .def_460 (and .def_458 (and .def_456 (and .def_349 (and .def_345 (and .def_343 (and .def_341 (and .def_339 (and .def_335 (and .def_333 (and .def_331 (and .def_329 (and .def_326 (and .def_323 (and .def_320 (and .def_317 (and .def_228 (and .loc.10 (and .def_102 (and .def_100 (and .def_97 .def_1150))))))))))))))))))))))))))))))))))) (let ((.def_1187 (= B3 0))) (let ((.def_1189 (or C3_4 (and (and (= .x.440 0) (= .x.437 0)) .def_1187)))) (let ((.def_1193 (and (<= B3 2147483647) (<= (- 2147483648) B3)))) (let ((.def_1198 (= (+ J3 (* (- 1) .x.398)) (- 1)))) (let ((.def_1200 (or C3 (and (and .def_347 .def_1193) .def_1198)))) (let ((.def_1209 (or C3_4 (and (and (= .x.398 .x.437) (= .x.375 .x.440)) (not .def_1187))))) (let ((.def_1289 (and .def_904 (and .def_896 (and .def_481 .def_901))))) (let ((.def_1290 (and .loc.5 .def_1289))) (let ((.def_1332 (not .def_434))) (let ((.def_1334 (not .def_435))) (let ((.def_1335 (or (or C3_4 .def_1332) .def_1334))) (let ((.def_1351 (and .def_383 (and .def_380 (and .def_904 (and .def_377 (and .def_896 (and .def_374 (and .def_371 (and .def_368 (and .def_365 (and .def_481 (and .def_360 (and .def_900 (and .def_898 (and .def_362 .def_1091)))))))))))))))) (let ((.def_1394 (and .def_859 (and .def_719 (and .def_533 (and .def_530 (and .def_528 (and .def_525 (and .def_523 (and .def_472 (and .def_470 (and .def_468 (and .def_466 (and .def_463 (and .def_460 (and .def_458 (and .def_456 (and .def_349 (and .def_345 (and .def_343 (and .def_341 (and .def_339 (and .def_335 (and .def_333 (and .def_331 (and .def_329 (and .def_326 (and .def_323 (and .def_320 (and .def_317 (and .def_228 (and .loc.11 (and .def_102 (and .def_100 (and .loc.6 .def_1150))))))))))))))))))))))))))))))))))) (let ((.def_1398 (or C3 (and .def_347 (and .def_1193 .def_1198))))) (let ((.def_1441 (or .def_1332 (or C3_4 .def_1334)))) (let ((.def_1455 (and .def_329 (and .def_326 (and .def_323 (and .def_320 (and .def_317 (and .def_228 (and .loc.12 (and .def_102 (and .loc.7 (and .loc.6 (and .loc.5 .def_1016))))))))))))) (let ((.def_1575 (or C3_4 (not .def_357)))) (and (and (= B .x.371) (and (= C .x.372) (and (= D .x.373) (and (= E .x.374) (and (= G .x.376) (and (= H .x.377) (and (= J .x.379) (and (= K .x.380) (and (= L .x.381) (and (= M .x.382) (and (= N .x.383) (and (= P .x.385) (and (= Q .x.386) (and (= S .x.388) (and (= T .x.389) (and (= U .x.390) (and (= V .x.391) (and (= W .x.392) (and (= X .x.393) (and (= Y .x.394) (and (= A1 .x.396) (and (= B1 .x.397) (and (= D1 .x.399) (and (= E1 .x.400) (and (= F1 .x.401) (and (= G1 .x.402) (and (= I1 .x.404) (and (= K1 .x.406) (and (= L1 .x.407) (and (= M1 .x.408) (and (= N1 .x.409) (and (= O1 .x.410) (and (= R1 .x.413) (= Q1 .x.412)))))))))))))))))))))))))))))))))) (or (or (or (or (or (or (or (or (or (or (or (or (or (or (or (or (or (or (or (or (or (or (and (or (or (and (or (or (or (and (and .def_228 .loc.10) (or (or (or (or (and (or (and (or (and .def_97 (and (or C3 .def_242) .def_302)) (and (and (and (and (and (and (and (and (and (and (and (and (and (and (and (and (and .loc.6 (or C3 .def_313)) .def_317) .def_320) .def_323) .def_326) .def_329) .def_331) .def_333) .def_335) .def_337) .def_339) .def_341) .def_343) .def_345) .def_347) .def_349) .def_354)) (and .def_100 (and (or C3 .def_357) .def_384))) (and (and (and (and (and (and (and (and (and (and (and (and (and (and (and (or C3 .def_392) (and (or C3 .def_420) (and (and .def_349 (and .def_347 (and .def_345 (and .def_343 (and .def_341 (and .def_339 (and .def_337 (and .def_335 (and .def_333 (and .def_331 (and .def_320 (and .loc.7 .def_97)))))))))))) .def_437))) .def_442) .def_445) .def_448) .def_451) .def_454) .def_456) .def_458) .def_460) .def_463) .def_466) .def_468) .def_470) .def_472) .def_477)) (and .def_102 (and .def_98 .def_483))) (and (or C3 (= .x.444 0)) (and (and (and (and (and (and (or C3_4 (= .x.444 .x.433)) (and .def_472 (and .def_470 (and .def_468 (and .def_466 (and .def_463 (and .def_460 (and .def_458 (and .def_456 (and .def_454 (and .def_451 (and .def_448 (and .def_445 (and .def_442 (and .def_349 (and .def_347 (and .def_345 (and .def_343 (and .def_341 (and .def_339 (and .def_337 (and .def_335 (and .def_333 (and .def_331 (and .def_329 (and .def_326 (and .def_323 (and .def_317 (and .def_97 (and .loc.8 (and .loc.7 (and .loc.5 .def_384)))))))))))))))))))))))))))))))) .def_523) .def_525) .def_528) .def_530) .def_533))) (and (and .def_533 (and .def_530 (and .def_528 (and .def_525 (and .def_472 (and .def_470 (and .def_468 (and .def_466 (and .def_463 (and .def_460 (and .def_458 (and .def_456 (and .def_454 (and .def_451 (and .def_448 (and .def_445 (and .def_442 (and .def_437 (and .def_349 (and .def_347 (and .def_345 (and .def_343 (and .def_341 (and .def_339 (and .def_337 (and .def_335 (and .def_333 (and .def_331 (and .def_329 (and .def_326 (and .def_323 (and .def_320 (and .def_317 (and .def_102 (and .def_98 (and .loc.7 (and .loc.6 .def_483))))))))))))))))))))))))))))))))))))) .def_585)) (and (and .def_533 (and .def_530 (and .def_528 (and .def_525 (and .def_472 (and .def_470 (and .def_468 (and .def_466 (and .def_463 (and .def_460 (and .def_458 (and .def_456 (and .def_454 (and .def_451 (and .def_448 (and .def_445 (and .def_442 (and .def_437 (and .def_349 (and .def_347 (and .def_345 (and .def_343 (and .def_341 (and .def_339 (and .def_337 (and .def_335 (and .def_333 (and .def_331 (and .def_329 (and .def_326 (and .def_323 (and .def_320 (and .def_317 (and .def_100 (and .def_97 (and .loc.8 .def_588)))))))))))))))))))))))))))))))))))) .def_633)) (and .def_585 (and .def_533 (and .def_530 (and .def_528 (and .def_525 (and .def_472 (and .def_470 (and .def_468 (and .def_466 (and .def_463 (and .def_460 (and .def_458 (and .def_456 (and .def_454 (and .def_451 (and .def_448 (and .def_445 (and .def_442 (and .def_437 (and .def_349 (and .def_347 (and .def_345 (and .def_343 (and .def_341 (and .def_339 (and .def_337 (and .def_335 (and .def_333 (and .def_331 (and .def_329 (and .def_326 (and .def_323 (and .def_320 (and .def_317 (and .def_100 (and .loc.8 (and .loc.6 .def_588))))))))))))))))))))))))))))))))))))))) (and (and (and (and .def_533 (and .def_530 (and .def_528 (and .def_525 (and .def_523 (and .def_472 (and .def_470 (and .def_468 (and .def_466 (and .def_463 (and .def_460 (and .def_458 (and .def_456 (and .def_454 (and .def_451 (and .def_448 (and .def_445 (and .def_442 (and .def_349 (and .def_347 (and .def_345 (and .def_343 (and .def_339 (and .def_337 (and .def_335 (and .def_333 .def_692)))))))))))))))))))))))))) .def_719) .def_724) .def_732)) (and (and .def_732 (and .def_719 (and .def_533 (and .def_530 (and .def_528 (and .def_525 (and .def_523 (and .def_472 (and .def_470 (and .def_468 (and .def_466 (and .def_463 (and .def_460 (and .def_458 (and .def_456 (and .def_454 (and .def_451 (and .def_448 (and .def_445 (and .def_442 (and .def_349 (and .def_347 (and .def_345 (and .def_343 (and .def_341 (and .def_339 (and .def_337 (and .def_335 (and .def_333 (and .def_331 .def_692)))))))))))))))))))))))))))))) .def_765)) (and (and (or (or C3_4 (and .def_394 .def_396)) (and .def_399 .def_401)) (and .def_719 (and .def_523 (and .def_477 (and .def_472 (and .def_470 (and .def_468 (and .def_466 (and .def_463 (and .def_460 (and .def_458 (and .def_456 (and .def_454 (and .def_451 (and .def_448 (and .def_445 (and .def_442 (and .def_349 (and .def_347 (and .def_345 (and .def_343 (and .def_341 (and .def_339 (and .def_337 (and .def_335 (and .def_333 (and .def_331 (and .def_320 (and .loc.9 (and .def_102 (and .def_97 (and .def_98 (and .loc.7 .def_779))))))))))))))))))))))))))))))))) .def_813)) .loc.12) (and (or C3_4 (and .def_434 (and .def_435 .def_722))) (and (and .def_732 (and .def_533 (and .def_530 (and .def_528 (and .def_525 (and .def_523 (and .def_472 (and .def_470 (and .def_468 (and .def_466 (and .def_463 (and .def_460 (and .def_458 (and .def_456 (and .def_454 (and .def_451 (and .def_448 (and .def_445 (and .def_442 (and .def_349 (and .def_347 (and .def_345 (and .def_343 (and .def_339 (and .def_337 (and .def_335 (and .def_333 .def_831))))))))))))))))))))))))))) .def_859))) (and .def_859 (and .def_765 (and .def_732 (and .def_533 (and .def_530 (and .def_528 (and .def_525 (and .def_523 (and .def_472 (and .def_470 (and .def_468 (and .def_466 (and .def_463 (and .def_460 (and .def_458 (and .def_456 (and .def_454 (and .def_451 (and .def_448 (and .def_445 (and .def_442 (and .def_349 (and .def_347 (and .def_345 (and .def_343 (and .def_341 (and .def_339 (and .def_337 (and .def_335 (and .def_333 (and .def_331 .def_831)))))))))))))))))))))))))))))))) (and (and (and .def_896 .def_901) .def_904) .loc.11)) (and (and (or C3_4 (and .def_272 (and (and .def_263 (= H3 .x.417)) (= M3 .x.420)))) (and (and .def_719 (and .def_533 (and .def_530 (and .def_528 (and .def_525 (and .def_523 (and .def_472 (and .def_470 (and .def_468 (and .def_466 (and .def_463 (and .def_460 (and .def_458 (and .def_456 (and .def_454 (and .def_451 (and .def_448 (and .def_445 (and .def_442 (and .def_349 (and .def_347 (and .def_345 (and .def_343 (and .def_339 (and .def_337 (and .def_335 (and .def_333 .def_925))))))))))))))))))))))))))) .def_953)) .def_963)) (and (or (or C3_4 (not (= .x.387 .x.417))) (not (= .x.411 .x.420))) (and .def_963 (and .def_953 (and .def_719 (and .def_533 (and .def_530 (and .def_528 (and .def_525 (and .def_523 (and .def_472 (and .def_470 (and .def_468 (and .def_466 (and .def_463 (and .def_460 (and .def_458 (and .def_456 (and .def_454 (and .def_451 (and .def_448 (and .def_445 (and .def_442 (and .def_349 (and .def_347 (and .def_345 (and .def_343 (and .def_341 (and .def_339 (and .def_337 (and .def_335 (and .def_333 (and .def_331 .def_925))))))))))))))))))))))))))))))))) (and .def_953 (and .def_732 (and .def_724 (and .def_533 (and .def_530 (and .def_528 (and .def_525 (and .def_523 (and .def_472 (and .def_470 (and .def_468 (and .def_466 (and .def_463 (and .def_460 (and .def_458 (and .def_456 (and .def_454 (and .def_451 (and .def_448 (and .def_445 (and .def_442 (and .def_349 (and .def_347 (and .def_345 (and .def_343 (and .def_339 (and .def_337 (and .def_335 (and .def_333 .def_1028)))))))))))))))))))))))))))))) (and .def_953 (and .def_765 (and .def_732 (and .def_533 (and .def_530 (and .def_528 (and .def_525 (and .def_523 (and .def_472 (and .def_470 (and .def_468 (and .def_466 (and .def_463 (and .def_460 (and .def_458 (and .def_456 (and .def_454 (and .def_451 (and .def_448 (and .def_445 (and .def_442 (and .def_349 (and .def_347 (and .def_345 (and .def_343 (and .def_341 (and .def_339 (and .def_337 (and .def_335 (and .def_333 (and .def_331 .def_1028)))))))))))))))))))))))))))))))) (and .def_719 (and .def_585 (and .def_533 (and .def_530 (and .def_528 (and .def_525 (and .def_472 (and .def_470 (and .def_468 (and .def_466 (and .def_463 (and .def_460 (and .def_458 (and .def_456 (and .def_454 (and .def_451 (and .def_448 (and .def_445 (and .def_442 (and .def_349 (and .def_347 (and .def_345 (and .def_343 (and .def_341 (and .def_339 (and .def_337 (and .def_335 (and .def_333 (and .def_331 (and .def_329 (and .def_326 (and .def_323 (and .def_320 (and .def_317 (and .def_228 (and .loc.12 (and .loc.11 (and .def_100 (and .loc.8 (and .loc.6 .def_1097))))))))))))))))))))))))))))))))))))))))) (and (and .def_1183 .def_1189) .def_1200)) (and (and .def_1183 .def_1200) .def_1209)) (and .def_859 (and .def_719 (and .def_477 (and .def_472 (and .def_470 (and .def_468 (and .def_466 (and .def_463 (and .def_460 (and .def_458 (and .def_456 (and .def_454 (and .def_451 (and .def_448 (and .def_445 (and .def_442 (and .def_349 (and .def_347 (and .def_345 (and .def_343 (and .def_341 (and .def_339 (and .def_337 (and .def_335 (and .def_333 (and .def_331 (and .def_320 (and .loc.11 (and .loc.9 (and .def_102 (and .def_97 (and .def_98 (and .loc.7 .def_1096)))))))))))))))))))))))))))))))))) (and .def_953 (and .def_633 (and .def_533 (and .def_530 (and .def_528 (and .def_525 (and .def_472 (and .def_470 (and .def_468 (and .def_466 (and .def_463 (and .def_460 (and .def_458 (and .def_456 (and .def_454 (and .def_451 (and .def_448 (and .def_445 (and .def_442 (and .def_349 (and .def_347 (and .def_345 (and .def_343 (and .def_341 (and .def_339 (and .def_337 (and .def_335 (and .def_333 (and .def_331 (and .def_329 (and .def_326 (and .def_323 (and .def_320 (and .def_317 (and .def_228 (and .loc.12 (and .loc.10 (and .def_100 (and .def_97 (and .loc.8 .def_1097))))))))))))))))))))))))))))))))))))))))) (and (and .def_719 (and .def_585 (and .def_533 (and .def_530 (and .def_528 (and .def_525 (and .def_523 (and .def_472 (and .def_470 (and .def_468 (and .def_466 (and .def_463 (and .def_460 (and .def_458 (and .def_456 (and .def_454 (and .def_451 (and .def_448 (and .def_445 (and .def_442 (and .def_349 (and .def_347 (and .def_345 (and .def_343 (and .def_341 (and .def_339 (and .def_337 (and .def_335 (and .def_333 (and .def_331 (and .def_329 (and .def_326 (and .def_323 (and .def_320 (and .def_317 (and .def_228 (and .loc.12 (and .loc.11 (and .def_100 (and .loc.8 (and .loc.6 .def_1290))))))))))))))))))))))))))))))))))))))))) .def_1335)) (and .def_953 (and .def_859 (and .def_719 (and .loc.9 (and .def_102 (and .def_100 (and .def_97 (and .def_98 (and .def_302 .def_1351)))))))))) (and (and .def_1189 .def_1394) .def_1398)) (and .def_1398 (and .def_1209 .def_1394))) (and (or .def_420 C3_4) (and (and .def_859 (and .def_813 (and .def_719 (and .def_523 (and .def_477 (and .def_472 (and .def_470 (and .def_468 (and .def_466 (and .def_463 (and .def_460 (and .def_458 (and .def_456 (and .def_454 (and .def_451 (and .def_448 (and .def_445 (and .def_442 (and .def_349 (and .def_347 (and .def_345 (and .def_343 (and .def_341 (and .def_339 (and .def_337 (and .def_335 (and .def_333 (and .def_331 (and .def_320 (and .loc.11 (and .loc.9 (and .def_102 (and .def_97 (and .def_98 (and .loc.7 .def_1289))))))))))))))))))))))))))))))))))) .def_1441))) (and .def_953 (and .def_732 (and .def_724 (and .def_719 (and .def_533 (and .def_530 (and .def_528 (and .def_525 (and .def_523 (and .def_472 (and .def_470 (and .def_468 (and .def_466 (and .def_463 (and .def_460 (and .def_458 (and .def_456 (and .def_454 (and .def_451 (and .def_448 (and .def_445 (and .def_442 (and .def_349 (and .def_347 (and .def_345 (and .def_343 (and .def_339 (and .def_337 (and .def_335 (and .def_333 .def_1455))))))))))))))))))))))))))))))) (and .def_953 (and .def_765 (and .def_732 (and .def_719 (and .def_533 (and .def_530 (and .def_528 (and .def_525 (and .def_523 (and .def_472 (and .def_470 (and .def_468 (and .def_466 (and .def_463 (and .def_460 (and .def_458 (and .def_456 (and .def_454 (and .def_451 (and .def_448 (and .def_445 (and .def_442 (and .def_349 (and .def_347 (and .def_345 (and .def_343 (and .def_341 (and .def_339 (and .def_337 (and .def_335 (and .def_333 (and .def_331 .def_1455))))))))))))))))))))))))))))))))) (and .def_1335 (and .def_953 (and .def_633 (and .def_533 (and .def_530 (and .def_528 (and .def_525 (and .def_523 (and .def_472 (and .def_470 (and .def_468 (and .def_466 (and .def_463 (and .def_460 (and .def_458 (and .def_456 (and .def_454 (and .def_451 (and .def_448 (and .def_445 (and .def_442 (and .def_349 (and .def_347 (and .def_345 (and .def_343 (and .def_341 (and .def_339 (and .def_337 (and .def_335 (and .def_333 (and .def_331 (and .def_329 (and .def_326 (and .def_323 (and .def_320 (and .def_317 (and .def_228 (and .loc.12 (and .loc.10 (and .def_100 (and .def_97 (and .loc.8 .def_1290))))))))))))))))))))))))))))))))))))))))))) (and (or .def_242 C3_4) (and (and .def_953 (and .def_859 (and .def_719 (and .def_523 (and .loc.9 (and .def_102 (and .def_100 (and .def_97 (and .def_98 (and .def_302 .def_1149)))))))))) .def_1575))) (and .def_953 (and .def_859 (and .def_354 (and .def_349 (and .def_347 (and .def_345 (and .def_343 (and .def_341 (and .def_339 (and .def_337 (and .def_335 (and .def_333 (and .def_331 (and .def_329 (and .def_326 (and .def_323 (and .def_320 (and .def_317 (and .loc.10 (and .loc.9 (and .def_102 (and .def_100 (and .def_98 (and .loc.6 .def_1351))))))))))))))))))))))))) (and .def_859 (and .def_585 (and .def_533 (and .def_530 (and .def_528 (and .def_525 (and .def_472 (and .def_470 (and .def_468 (and .def_466 (and .def_463 (and .def_460 (and .def_458 (and .def_456 (and .def_454 (and .def_451 (and .def_448 (and .def_445 (and .def_442 (and .def_349 (and .def_347 (and .def_345 (and .def_343 (and .def_341 (and .def_339 (and .def_337 (and .def_335 (and .def_333 (and .def_331 (and .def_329 (and .def_326 (and .def_323 (and .def_320 (and .def_317 (and .loc.11 (and .loc.10 (and .loc.9 (and .def_102 (and .def_98 (and .loc.7 (and .loc.6 .def_1096)))))))))))))))))))))))))))))))))))))))))) (and (or .def_313 C3_4) (and .def_1575 (and .def_953 (and .def_859 (and .def_523 (and .def_354 (and .def_349 (and .def_347 (and .def_345 (and .def_343 (and .def_341 (and .def_339 (and .def_337 (and .def_335 (and .def_333 (and .def_331 (and .def_329 (and .def_326 (and .def_323 (and .def_320 (and .def_317 (and .loc.10 (and .loc.9 (and .def_102 (and .def_100 (and .def_98 (and .loc.6 .def_1149)))))))))))))))))))))))))))) (and .def_1441 (and .def_859 (and .def_585 (and .def_533 (and .def_530 (and .def_528 (and .def_525 (and .def_523 (and .def_472 (and .def_470 (and .def_468 (and .def_466 (and .def_463 (and .def_460 (and .def_458 (and .def_456 (and .def_454 (and .def_451 (and .def_448 (and .def_445 (and .def_442 (and .def_349 (and .def_347 (and .def_345 (and .def_343 (and .def_341 (and .def_339 (and .def_337 (and .def_335 (and .def_333 (and .def_331 (and .def_329 (and .def_326 (and .def_323 (and .def_320 (and .def_317 (and .loc.11 (and .loc.10 (and .loc.9 (and .def_102 (and .def_98 (and .loc.7 (and .loc.6 .def_1289))))))))))))))))))))))))))))))))))))))))))))))))))))))))))))))))))))))))))))))))))))))))))))))))))))))))))))))))))))))))))))))))))))))))))))))))))))))))))))))))))))))))))))))))) (state |.x.370| |.x.371| |.x.372| |.x.373| |.x.374| |.x.375| |.x.376| |.x.377| |.x.378| |.x.379| |.x.380| |.x.381| |.x.382| |.x.383| |.x.384| |.x.385| |.x.386| |.x.387| |.x.388| |.x.389| |.x.390| |.x.391| |.x.392| |.x.393| |.x.394| |.x.395| |.x.396| |.x.397| |.x.398| |.x.399| |.x.400| |.x.401| |.x.402| |.x.403| |.x.404| |.x.405| |.x.406| |.x.407| |.x.408| |.x.409| |.x.410| |.x.411| |.x.412| |.x.413| |.x.414| |.x.415| |.x.416| |.x.417| |.x.418| |.x.419| |.x.420| |.x.421| |.x.422| |.x.423| |.x.424| |.x.425| |.x.426| |.x.427| |.x.428| |.x.429| |.x.430| |.x.431| |.x.432| |.x.433| |.x.434| |.x.435| |.x.436| |.x.437| |.x.438| |.x.439| |.x.440| |.x.441| |.x.442| |.x.443| |.x.444| |.x.445| |.x.446| |.x.447| |.x.448| |.x.449| |C3_4| |.loc.9| |.loc.10| |.loc.11| |.loc.12| |.xtv.1| |.xtv.2|))))
(assert (forall ((|D3| Int) (|B| Int) (|C| (Array Int Int)) (|D| Int) (|E| Int) (|E3| Int) (|G| Int) (|H| Int) (|F3| Int) (|J| Int) (|K| Int) (|L| Int) (|M| Int) (|N| Int) (|G3| (Array Int Int)) (|P| (Array Int Int)) (|Q| Int) (|H3| Int) (|S| Int) (|T| Int) (|U| Int) (|V| Int) (|W| Int) (|X| Int) (|Y| Int) (|I3| Int) (|A1| Int) (|B1| Int) (|J3| Int) (|D1| Int) (|E1| Int) (|F1| Int) (|G1| Int) (|K3| Int) (|I1| Int) (|L3| (Array Int Int)) (|K1| (Array Int Int)) (|L1| Int) (|M1| Int) (|N1| Int) (|O1| Int) (|M3| Int) (|Q1| Int) (|R1| (Array Int Int)) (|S1| Int) (|T1| Int) (|U1| Int) (|V1| Int) (|W1| Int) (|X1| Int) (|Y1| Int) (|Z1| Int) (|A2| Int) (|B2| Int) (|C2| Int) (|D2| Int) (|E2| Int) (|F2| Int) (|G2| Int) (|H2| Int) (|I2| Int) (|J2| Int) (|K2| Int) (|L2| Int) (|M2| Int) (|N2| Int) (|O2| Int) (|P2| Int) (|Q2| Int) (|R2| Int) (|S2| Int) (|T2| Int) (|U2| Int) (|V2| Int) (|W2| Int) (|X2| Int) (|Y2| Int) (|Z2| Int) (|A3| Int) (|B3| Int) (|C3| Bool) (|.loc.5| Bool) (|.loc.6| Bool) (|.loc.7| Bool) (|.loc.8| Bool) (|R3_0| Int) (|O3_0| Int) (|.x.371| Int) (|.x.372| (Array Int Int)) (|.x.373| Int) (|.x.374| Int) (|.x.376| Int) (|.x.377| Int) (|.x.379| Int) (|.x.380| Int) (|.x.381| Int) (|.x.382| Int) (|.x.383| Int) (|.x.385| (Array Int Int)) (|.x.386| Int) (|.x.388| Int) (|.x.389| Int) (|.x.390| Int) (|.x.391| Int) (|.x.392| Int) (|.x.393| Int) (|.x.394| Int) (|.x.396| Int) (|.x.397| Int) (|.x.399| Int) (|.x.400| Int) (|.x.401| Int) (|.x.402| Int) (|.x.404| Int) (|.x.406| (Array Int Int)) (|.x.407| Int) (|.x.408| Int) (|.x.409| Int) (|.x.410| Int) (|.x.413| (Array Int Int)) (|.x.412| Int) (|.loc.9| Bool) (|.loc.10| Bool) (|.x.428| Int) (|.x.430| Int) (|.x.421| Int) (|.x.435| Int) (|.x.370| Int) (|.x.405| (Array Int Int)) (|.x.384| (Array Int Int)) (|.x.375| Int) (|.x.378| Int) (|.x.411| Int) (|.x.403| Int) (|.x.398| Int) (|.x.387| Int) (|.x.395| Int) (|.x.418| Int) (|.x.414| Int) (|.x.446| Int) (|.x.444| Int) (|.x.443| Int) (|.x.432| Int) (|.x.427| Int) (|.x.434| Int) (|.x.445| Int) (|.x.431| Int) (|.x.424| Int) (|.x.423| Int) (|.x.422| Int) (|.x.419| Int) (|.x.416| Int) (|.x.415| Int) (|.x.438| Int) (|.x.447| Int) (|.x.449| Int) (|.x.448| Int) (|.x.440| Int) (|.x.437| Int) (|.x.436| Int) (|.x.426| Int) (|.x.425| Int) (|.x.433| Int) (|C3_4| Bool) (|.x.439| Int) (|.x.429| Int) (|.loc.12| Bool) (|.x.420| Int) (|.x.442| Int) (|.x.441| Int) (|.x.417| Int) (|.loc.11| Bool) (|.xtv.1| Int) (|.xtv.2| Int)) (=> (state |D3| |B| |C| |D| |E| |E3| |G| |H| |F3| |J| |K| |L| |M| |N| |G3| |P| |Q| |H3| |S| |T| |U| |V| |W| |X| |Y| |I3| |A1| |B1| |J3| |D1| |E1| |F1| |G1| |K3| |I1| |L3| |K1| |L1| |M1| |N1| |O1| |M3| |Q1| |R1| |S1| |T1| |U1| |V1| |W1| |X1| |Y1| |Z1| |A2| |B2| |C2| |D2| |E2| |F2| |G2| |H2| |I2| |J2| |K2| |L2| |M2| |N2| |O2| |P2| |Q2| |R2| |S2| |T2| |U2| |V2| |W2| |X2| |Y2| |Z2| |A3| |B3| |C3| |.loc.5| |.loc.6| |.loc.7| |.loc.8| |R3_0| |O3_0|) (not (and C3 (and .loc.8 (and .loc.7 (and .loc.6 (not .loc.5)))))))))
(check-sat)
